p cnf 2 36
-1 2 0
-2 1 0
2 1 0
-1 -2 0
1 2 0
2 -1 0
-2 -1 0
-1 -2 0
1 2 0
-2 1 0
-2 1 0
1 -2 0
2 -1 0
2 1 0
2 -1 0
-1 -2 0
-2 1 0
-2 1 0
-2 -1 0
2 -1 0
1 -2 0
-2 -1 0
-1 -2 0
-1 -2 0
-1 2 0
-1 2 0
-2 -1 0
-1 -2 0
-2 -1 0
1 2 0
-1 2 0
1 2 0
2 -1 0
2 -1 0
1 -2 0
2 -1 0
